p cnf 12 22
-12 -11 -4 0
-12 5 -4 0
11 -9 4 0
11 8 -7 0
11 -7 4 0
11 7 -1 0
-11 6 3 0
-11 -5 2 0
10 8 6 0
-10 8 5 0
-10 -6 -3 0
10 -3 -2 0
-10 -3 2 0
10 -3 -1 0
9 6 -5 0
9 5 4 0
9 -5 -4 0
-8 -7 4 0
-8 7 -4 0
8 -6 1 0
-8 -3 -1 0
6 3 -1 0
